(declare-const |y':58| Int)
(declare-const |K:68| Int)
(declare-const havoc Int)
(declare-const |c':59| Int)
(declare-const |x':57| Int)
(declare-const |havoc:1| Int)
(assert (and (or (not (<= (- |K:68|) 0)) (= (+ |c':59| (- |K:68|) -1) 0))
               (or (and (= |K:68| 0) (= (+ (- |c':59|) 1) 0)
                          (= (+ (- |y':58|) 1) 0) (= (+ (- |x':57|) 1) 0))
                     (and (<= (+ (- |K:68|) 1) 0) (<= (+ (- |havoc:1|) 2) 0)
                            (= (+ (* havoc |x':57|) (- |x':57|)
                                    (- (* havoc |y':58|)) 1) 0)
                            (<= (+ (- |havoc:1|) |c':59|) 0)
                            (<= (+ (- |c':59|) 2) 0))) (<= (- |K:68|) 0)
               (< (- |c':59|) 0)
               (not (= (+ (* havoc |x':57|) (- |x':57|) (- (* havoc |y':58|))
                            1) 0))))
(check-sat)
